single_objective/SL-DABL/OP/problems/op/OPLib-master/solutions/ea4op/gen1/tsp225-gen1-50.sol
NAME : tsp225
TYPE : OP
DIMENSION : 225
COST_LIMIT : 1958
ROUTE_NODES : 127
ROUTE_SCORE : 127
ROUTE_COST : 1958
NODE_SEQUENCE_SECTION
1
198
197
195
194
218
193
196
192
224
199
133
190
225
47
2
207
49
51
57
55
56
58
59
60
61
62
116
223
115
114
113
112
64
65
66
67
68
69
70
71
72
73
102
103
104
220
105
106
107
108
109
125
212
214
151
152
149
148
147
146
153
154
155
156
157
144
143
201
142
141
159
160
161
162
163
137
136
183
135
134
215
164
129
222
130
211
131
86
85
82
83
84
210
87
90
91
92
93
94
209
95
96
97
78
77
217
219
216
31
206
202
30
29
35
34
33
37
38
39
40
41
8
7
6
5
3
-1
DEPOT_SECTION
1
-1
EOF
